<number of tasks>
70

<cycle time>
527

<task times>
1 17
2 66
3 54
4 52
5 6
6 88
7 21
8 128
9 68
10 70
11 85
12 21
13 134
14 135
15 94
16 90
17 50
18 143
19 19
20 54
21 50
22 40
23 73
24 12
25 152
26 42
27 45
28 74
29 26
30 11
31 31
32 50
33 102
34 46
35 35
36 40
37 2
38 1
39 3
40 13
41 16
42 25
43 21
44 43
45 30
46 83
47 89
48 56
49 59
50 43
51 11
52 26
53 44
54 121
55 38
56 68
57 22
58 7
59 16
60 32
61 25
62 27
63 156
64 28
65 15
66 26
67 18
68 72
69 23
70 27

<precedence relations>
1,2
1,41
1,69
1,70
2,3
3,4
3,68
4,6
4,7
5,6
5,24
5,30
6,8
7,8
8,12
9,10
10,11
11,12
12,13
12,14
13,23
14,23
15,16
16,17
16,18
17,19
18,19
19,20
19,22
19,57
20,21
21,23
22,23
23,25
23,31
23,33
24,25
25,26
25,27
25,28
25,29
26,35
27,35
28,35
29,35
30,31
31,32
32,35
33,34
34,35
35,36
35,44
35,48
35,51
35,53
35,56
35,60
35,61
35,62
36,37
37,38
38,39
39,40
40,42
41,42
42,43
43,50
44,45
45,46
46,47
47,50
48,49
49,50
51,52
52,54
53,54
54,55
57,58
58,59
59,60
61,65
62,63
63,64
64,65
64,66
64,67

<setup times forward>
1,11:4
1,16:4
1,17:2
1,18:4
1,19:2
1,20:2
1,21:2
1,22:2
1,30:4
1,41:4
1,57:2
1,58:2
1,59:2
1,69:1
1,70:1
2,11:4
2,16:4
2,17:2
2,18:4
2,19:2
2,20:2
2,21:2
2,22:2
2,30:4
2,41:4
2,57:2
2,58:2
2,59:2
2,69:1
2,70:1
3,11:4
3,16:4
3,17:2
3,18:4
3,19:2
3,20:2
3,21:2
3,22:2
3,30:4
3,41:4
3,57:2
3,58:2
3,59:2
3,68:1
3,69:1
3,70:1
4,7:4
4,11:4
4,16:4
4,17:2
4,18:4
4,19:2
4,20:2
4,21:2
4,22:2
4,30:4
4,41:4
4,57:2
4,58:2
4,59:2
4,68:1
4,69:1
4,70:1
5,7:4
5,11:4
5,16:4
5,17:2
5,18:4
5,19:2
5,20:2
5,21:2
5,22:2
5,30:4
5,41:4
5,57:2
5,58:2
5,59:2
5,68:1
5,69:1
5,70:1
6,7:4
6,8:4
6,11:4
6,16:4
6,17:2
6,18:4
6,19:2
6,20:2
6,21:2
6,22:2
6,30:4
6,41:4
6,57:2
6,58:2
6,59:2
6,68:1
6,69:1
6,70:1
7,5:4
7,6:4
7,9:4
7,10:4
7,15:4
7,17:6
7,19:6
7,20:6
7,21:6
7,22:6
7,24:4
7,57:6
7,58:6
7,59:6
7,68:5
7,69:5
7,70:5
8,9:4
8,10:4
8,15:4
8,17:6
8,19:6
8,20:6
8,21:6
8,22:6
8,24:4
8,57:6
8,58:6
8,59:6
8,68:5
8,69:5
8,70:5
9,7:4
9,8:4
9,16:4
9,17:2
9,18:4
9,19:2
9,20:2
9,21:2
9,22:2
9,30:4
9,41:4
9,57:2
9,58:2
9,59:2
9,68:1
9,69:1
9,70:1
10,7:4
10,8:4
10,11:4
10,16:4
10,17:2
10,18:4
10,19:2
10,20:2
10,21:2
10,22:2
10,30:4
10,41:4
10,57:2
10,58:2
10,59:2
10,68:1
10,69:1
10,70:1
11,1:4
11,2:4
11,3:4
11,4:4
11,5:4
11,6:4
11,15:4
11,17:6
11,19:6
11,20:6
11,21:6
11,22:6
11,24:4
11,57:6
11,58:6
11,59:6
11,68:5
11,69:5
11,70:5
12,13:6
12,14:6
12,15:4
12,17:6
12,19:6
12,20:6
12,21:6
12,22:6
12,24:4
12,57:6
12,58:6
12,59:6
12,68:5
12,69:5
12,70:5
13,15:2
13,16:6
13,18:6
13,23:3
13,24:2
13,30:6
13,41:6
13,68:1
13,69:1
13,70:1
14,15:2
14,16:6
14,18:6
14,23:3
14,24:2
14,30:6
14,41:6
14,68:1
14,69:1
14,70:1
15,7:4
15,8:4
15,11:4
15,12:4
15,13:2
15,14:2
15,16:4
15,30:4
15,41:4
15,68:1
15,69:1
15,70:1
16,1:4
16,2:4
16,3:4
16,4:4
16,5:4
16,6:4
16,9:4
16,10:4
16,13:6
16,14:6
16,17:6
16,24:4
16,68:5
16,69:5
16,70:5
17,1:2
17,2:2
17,3:2
17,4:2
17,5:2
17,6:2
17,7:6
17,8:6
17,9:2
17,10:2
17,11:6
17,12:6
17,18:6
17,24:2
17,30:6
17,41:6
17,68:1
17,69:1
17,70:1
18,1:4
18,2:4
18,3:4
18,4:4
18,5:4
18,6:4
18,9:4
18,10:4
18,13:6
18,14:6
18,17:6
18,19:6
18,24:4
18,68:5
18,69:5
18,70:5
19,1:2
19,2:2
19,3:2
19,4:2
19,5:2
19,6:2
19,7:6
19,8:6
19,9:2
19,10:2
19,11:6
19,12:6
19,24:2
19,30:6
19,41:6
19,68:1
19,69:1
19,70:1
20,1:2
20,2:2
20,3:2
20,4:2
20,5:2
20,6:2
20,7:6
20,8:6
20,9:2
20,10:2
20,11:6
20,12:6
20,24:2
20,30:6
20,41:6
20,68:1
20,69:1
20,70:1
21,1:2
21,2:2
21,3:2
21,4:2
21,5:2
21,6:2
21,7:6
21,8:6
21,9:2
21,10:2
21,11:6
21,12:6
21,23:3
21,24:2
21,30:6
21,41:6
21,68:1
21,69:1
21,70:1
22,1:2
22,2:2
22,3:2
22,4:2
22,5:2
22,6:2
22,7:6
22,8:6
22,9:2
22,10:2
22,11:6
22,12:6
22,23:3
22,24:2
22,30:6
22,41:6
22,68:1
22,69:1
22,70:1
23,24:1
23,30:3
23,41:3
23,57:3
23,58:3
23,59:3
23,68:2
23,69:2
23,70:2
24,7:4
24,8:4
24,11:4
24,12:4
24,13:2
24,14:2
24,16:4
24,17:2
24,18:4
24,19:2
24,20:2
24,21:2
24,22:2
24,23:1
24,25:1
24,30:4
24,31:1
24,32:1
24,33:1
24,34:1
24,41:4
24,57:2
24,58:2
24,59:2
24,68:1
24,69:1
24,70:1
25,30:3
25,41:3
25,57:3
25,58:3
25,59:3
25,68:2
25,69:2
25,70:2
26,30:3
26,41:3
26,57:3
26,58:3
26,59:3
26,68:2
26,69:2
26,70:2
27,30:3
27,41:3
27,57:3
27,58:3
27,59:3
27,68:2
27,69:2
27,70:2
28,30:3
28,41:3
28,57:3
28,58:3
28,59:3
28,68:2
28,69:2
28,70:2
29,30:3
29,41:3
29,57:3
29,58:3
29,59:3
29,68:2
29,69:2
29,70:2
30,1:4
30,2:4
30,3:4
30,4:4
30,6:4
30,9:4
30,10:4
30,13:6
30,14:6
30,15:4
30,17:6
30,19:6
30,20:6
30,21:6
30,22:6
30,23:3
30,24:4
30,25:3
30,26:3
30,27:3
30,28:3
30,29:3
30,31:3
30,33:3
30,34:3
30,57:6
30,58:6
30,59:6
30,68:5
30,69:5
30,70:5
31,24:1
31,41:3
31,57:3
31,58:3
31,59:3
31,68:2
31,69:2
31,70:2
32,24:1
32,41:3
32,57:3
32,58:3
32,59:3
32,68:2
32,69:2
32,70:2
33,24:1
33,30:3
33,41:3
33,57:3
33,58:3
33,59:3
33,68:2
33,69:2
33,70:2
34,24:1
34,30:3
34,41:3
34,57:3
34,58:3
34,59:3
34,68:2
34,69:2
34,70:2
35,36:4
35,41:3
35,48:4
35,53:4
35,56:2
35,57:3
35,58:3
35,59:3
35,60:2
35,61:4
35,68:2
35,69:2
35,70:2
36,41:7
36,44:4
36,45:4
36,46:4
36,51:4
36,52:4
36,55:2
36,56:2
36,57:1
36,58:1
36,59:1
36,60:2
36,62:4
36,63:4
36,65:2
36,66:2
36,67:2
36,68:2
36,69:2
36,70:2
37,41:7
37,44:4
37,45:4
37,46:4
37,51:4
37,52:4
37,55:2
37,56:2
37,57:1
37,58:1
37,59:1
37,60:2
37,62:4
37,63:4
37,65:2
37,66:2
37,67:2
37,68:2
37,69:2
37,70:2
38,41:7
38,44:4
38,45:4
38,46:4
38,51:4
38,52:4
38,55:2
38,56:2
38,57:1
38,58:1
38,59:1
38,60:2
38,62:4
38,63:4
38,65:2
38,66:2
38,67:2
38,68:2
38,69:2
38,70:2
39,41:7
39,44:4
39,45:4
39,46:4
39,51:4
39,52:4
39,55:2
39,56:2
39,57:1
39,58:1
39,59:1
39,60:2
39,62:4
39,63:4
39,65:2
39,66:2
39,67:2
39,68:2
39,69:2
39,70:2
40,41:7
40,44:4
40,45:4
40,46:4
40,51:4
40,52:4
40,55:2
40,56:2
40,57:1
40,58:1
40,59:1
40,60:2
40,62:4
40,63:4
40,65:2
40,66:2
40,67:2
40,68:2
40,69:2
40,70:2
41,2:4
41,3:4
41,4:4
41,5:4
41,6:4
41,9:4
41,10:4
41,13:6
41,14:6
41,15:4
41,17:6
41,19:6
41,20:6
41,21:6
41,22:6
41,23:3
41,24:4
41,25:3
41,26:3
41,27:3
41,28:3
41,29:3
41,31:3
41,32:3
41,33:3
41,34:3
41,35:3
41,36:7
41,37:7
41,38:7
41,39:7
41,40:7
41,42:7
41,44:3
41,45:3
41,46:3
41,47:7
41,48:7
41,49:7
41,51:3
41,52:3
41,53:7
41,54:7
41,55:5
41,56:5
41,57:6
41,58:6
41,59:6
41,60:5
41,61:7
41,62:3
41,63:3
41,64:7
41,65:5
41,66:5
41,67:5
41,68:5
41,69:5
41,70:5
42,44:4
42,45:4
42,46:4
42,51:4
42,52:4
42,55:2
42,56:2
42,57:1
42,58:1
42,59:1
42,60:2
42,62:4
42,63:4
42,65:2
42,66:2
42,67:2
42,68:2
42,69:2
42,70:2
43,44:4
43,45:4
43,46:4
43,50:2
43,51:4
43,52:4
43,55:2
43,56:2
43,57:1
43,58:1
43,59:1
43,60:2
43,62:4
43,63:4
43,65:2
43,66:2
43,67:2
43,68:2
43,69:2
43,70:2
44,36:4
44,37:4
44,38:4
44,39:4
44,40:4
44,41:3
44,42:4
44,43:4
44,48:4
44,49:4
44,53:4
44,54:4
44,55:2
44,56:2
44,57:3
44,58:3
44,59:3
44,60:2
44,61:4
44,64:4
44,65:2
44,66:2
44,67:2
44,68:2
44,69:2
44,70:2
45,36:4
45,37:4
45,38:4
45,39:4
45,40:4
45,41:3
45,42:4
45,43:4
45,48:4
45,49:4
45,53:4
45,54:4
45,55:2
45,56:2
45,57:3
45,58:3
45,59:3
45,60:2
45,61:4
45,64:4
45,65:2
45,66:2
45,67:2
45,68:2
45,69:2
45,70:2
46,36:4
46,37:4
46,38:4
46,39:4
46,40:4
46,41:3
46,42:4
46,43:4
46,47:4
46,48:4
46,49:4
46,53:4
46,54:4
46,55:2
46,56:2
46,57:3
46,58:3
46,59:3
46,60:2
46,61:4
46,64:4
46,65:2
46,66:2
46,67:2
46,68:2
46,69:2
46,70:2
47,41:7
47,50:2
47,51:4
47,52:4
47,55:2
47,56:2
47,57:1
47,58:1
47,59:1
47,60:2
47,62:4
47,63:4
47,65:2
47,66:2
47,67:2
47,68:2
47,69:2
47,70:2
48,41:7
48,44:4
48,45:4
48,46:4
48,51:4
48,52:4
48,55:2
48,56:2
48,57:1
48,58:1
48,59:1
48,60:2
48,62:4
48,63:4
48,65:2
48,66:2
48,67:2
48,68:2
48,69:2
48,70:2
49,41:7
49,44:4
49,45:4
49,46:4
49,50:2
49,51:4
49,52:4
49,55:2
49,56:2
49,57:1
49,58:1
49,59:1
49,60:2
49,62:4
49,63:4
49,65:2
49,66:2
49,67:2
49,68:2
49,69:2
49,70:2
50,51:2
50,52:2
50,53:2
50,54:2
50,57:1
50,58:1
50,59:1
50,61:2
50,62:2
50,63:2
50,64:2
51,36:4
51,37:4
51,38:4
51,39:4
51,40:4
51,41:3
51,42:4
51,43:4
51,47:4
51,48:4
51,49:4
51,50:2
51,53:4
51,56:2
51,57:3
51,58:3
51,59:3
51,60:2
51,61:4
51,64:4
51,65:2
51,66:2
51,67:2
51,68:2
51,69:2
51,70:2
52,36:4
52,37:4
52,38:4
52,39:4
52,40:4
52,41:3
52,42:4
52,43:4
52,47:4
52,48:4
52,49:4
52,50:2
52,53:4
52,54:4
52,56:2
52,57:3
52,58:3
52,59:3
52,60:2
52,61:4
52,64:4
52,65:2
52,66:2
52,67:2
52,68:2
52,69:2
52,70:2
53,41:7
53,44:4
53,45:4
53,46:4
53,50:2
53,51:4
53,52:4
53,56:2
53,57:1
53,58:1
53,59:1
53,60:2
53,62:4
53,63:4
53,65:2
53,66:2
53,67:2
53,68:2
53,69:2
53,70:2
54,41:7
54,44:4
54,45:4
54,46:4
54,50:2
54,55:2
54,56:2
54,57:1
54,58:1
54,59:1
54,60:2
54,62:4
54,63:4
54,65:2
54,66:2
54,67:2
54,68:2
54,69:2
54,70:2
55,36:2
55,37:2
55,38:2
55,39:2
55,40:2
55,41:5
55,42:2
55,43:2
55,44:2
55,45:2
55,46:2
55,47:2
55,48:2
55,49:2
55,57:1
55,58:1
55,59:1
55,61:2
55,62:2
55,63:2
55,64:2
56,36:2
56,37:2
56,38:2
56,39:2
56,40:2
56,41:5
56,42:2
56,43:2
56,44:2
56,45:2
56,46:2
56,47:2
56,48:2
56,49:2
56,51:2
56,52:2
56,53:2
56,54:2
56,57:1
56,58:1
56,59:1
56,61:2
56,62:2
56,63:2
56,64:2
57,1:2
57,2:2
57,3:2
57,4:2
57,5:2
57,6:2
57,7:6
57,8:6
57,9:2
57,10:2
57,11:6
57,12:6
57,23:3
57,24:2
57,25:3
57,26:3
57,27:3
57,28:3
57,29:3
57,30:6
57,31:3
57,32:3
57,33:3
57,34:3
57,35:3
57,36:1
57,37:1
57,38:1
57,39:1
57,40:1
57,41:6
57,42:1
57,43:1
57,44:3
57,45:3
57,46:3
57,47:1
57,48:1
57,49:1
57,50:1
57,51:3
57,52:3
57,53:1
57,54:1
57,55:1
57,56:1
57,61:1
57,62:3
57,63:3
57,64:1
57,65:1
57,66:1
57,67:1
57,68:1
57,69:1
57,70:1
58,1:2
58,2:2
58,3:2
58,4:2
58,5:2
58,6:2
58,7:6
58,8:6
58,9:2
58,10:2
58,11:6
58,12:6
58,23:3
58,24:2
58,25:3
58,26:3
58,27:3
58,28:3
58,29:3
58,30:6
58,31:3
58,32:3
58,33:3
58,34:3
58,35:3
58,36:1
58,37:1
58,38:1
58,39:1
58,40:1
58,41:6
58,42:1
58,43:1
58,44:3
58,45:3
58,46:3
58,47:1
58,48:1
58,49:1
58,50:1
58,51:3
58,52:3
58,53:1
58,54:1
58,55:1
58,56:1
58,61:1
58,62:3
58,63:3
58,64:1
58,65:1
58,66:1
58,67:1
58,68:1
58,69:1
58,70:1
59,1:2
59,2:2
59,3:2
59,4:2
59,5:2
59,6:2
59,7:6
59,8:6
59,9:2
59,10:2
59,11:6
59,12:6
59,23:3
59,24:2
59,25:3
59,26:3
59,27:3
59,28:3
59,29:3
59,30:6
59,31:3
59,32:3
59,33:3
59,34:3
59,35:3
59,36:1
59,37:1
59,38:1
59,39:1
59,40:1
59,41:6
59,42:1
59,43:1
59,44:3
59,45:3
59,46:3
59,47:1
59,48:1
59,49:1
59,50:1
59,51:3
59,52:3
59,53:1
59,54:1
59,55:1
59,56:1
59,60:1
59,61:1
59,62:3
59,63:3
59,64:1
59,65:1
59,66:1
59,67:1
59,68:1
59,69:1
59,70:1
60,36:2
60,37:2
60,38:2
60,39:2
60,40:2
60,41:5
60,42:2
60,43:2
60,44:2
60,45:2
60,46:2
60,47:2
60,48:2
60,49:2
60,51:2
60,52:2
60,53:2
60,54:2
60,61:2
60,62:2
60,63:2
60,64:2
61,41:7
61,44:4
61,45:4
61,46:4
61,50:2
61,51:4
61,52:4
61,55:2
61,56:2
61,57:1
61,58:1
61,59:1
61,60:2
61,62:4
61,63:4
61,65:2
61,66:2
61,67:2
61,68:2
61,69:2
61,70:2
62,36:4
62,37:4
62,38:4
62,39:4
62,40:4
62,41:3
62,42:4
62,43:4
62,47:4
62,48:4
62,49:4
62,50:2
62,53:4
62,54:4
62,55:2
62,56:2
62,57:3
62,58:3
62,59:3
62,60:2
62,61:4
62,68:2
62,69:2
62,70:2
63,36:4
63,37:4
63,38:4
63,39:4
63,40:4
63,41:3
63,42:4
63,43:4
63,47:4
63,48:4
63,49:4
63,50:2
63,53:4
63,54:4
63,55:2
63,56:2
63,57:3
63,58:3
63,59:3
63,60:2
63,61:4
63,64:4
63,68:2
63,69:2
63,70:2
64,41:7
64,44:4
64,45:4
64,46:4
64,50:2
64,51:4
64,52:4
64,55:2
64,56:2
64,57:1
64,58:1
64,59:1
64,60:2
64,65:2
64,66:2
64,67:2
64,68:2
64,69:2
64,70:2
65,36:2
65,37:2
65,38:2
65,39:2
65,40:2
65,41:5
65,42:2
65,43:2
65,44:2
65,45:2
65,46:2
65,47:2
65,48:2
65,49:2
65,51:2
65,52:2
65,53:2
65,54:2
65,57:1
65,58:1
65,59:1
66,36:2
66,37:2
66,38:2
66,39:2
66,40:2
66,41:5
66,42:2
66,43:2
66,44:2
66,45:2
66,46:2
66,47:2
66,48:2
66,49:2
66,51:2
66,52:2
66,53:2
66,54:2
66,57:1
66,58:1
66,59:1
66,61:2
67,36:2
67,37:2
67,38:2
67,39:2
67,40:2
67,41:5
67,42:2
67,43:2
67,44:2
67,45:2
67,46:2
67,47:2
67,48:2
67,49:2
67,51:2
67,52:2
67,53:2
67,54:2
67,57:1
67,58:1
67,59:1
67,61:2
68,4:1
68,5:1
68,6:1
68,7:5
68,8:5
68,9:1
68,10:1
68,11:5
68,12:5
68,13:1
68,14:1
68,15:1
68,16:5
68,17:1
68,18:5
68,19:1
68,20:1
68,21:1
68,22:1
68,23:2
68,24:1
68,25:2
68,26:2
68,27:2
68,28:2
68,29:2
68,30:5
68,31:2
68,32:2
68,33:2
68,34:2
68,35:2
68,36:2
68,37:2
68,38:2
68,39:2
68,40:2
68,41:5
68,42:2
68,43:2
68,44:2
68,45:2
68,46:2
68,47:2
68,48:2
68,49:2
68,51:2
68,52:2
68,53:2
68,54:2
68,57:1
68,58:1
68,59:1
68,61:2
68,62:2
68,63:2
68,64:2
69,2:1
69,3:1
69,4:1
69,5:1
69,6:1
69,7:5
69,8:5
69,9:1
69,10:1
69,11:5
69,12:5
69,13:1
69,14:1
69,15:1
69,16:5
69,17:1
69,18:5
69,19:1
69,20:1
69,21:1
69,22:1
69,23:2
69,24:1
69,25:2
69,26:2
69,27:2
69,28:2
69,29:2
69,30:5
69,31:2
69,32:2
69,33:2
69,34:2
69,35:2
69,36:2
69,37:2
69,38:2
69,39:2
69,40:2
69,41:5
69,42:2
69,43:2
69,44:2
69,45:2
69,46:2
69,47:2
69,48:2
69,49:2
69,51:2
69,52:2
69,53:2
69,54:2
69,57:1
69,58:1
69,59:1
69,61:2
69,62:2
69,63:2
69,64:2
70,2:1
70,3:1
70,4:1
70,5:1
70,6:1
70,7:5
70,8:5
70,9:1
70,10:1
70,11:5
70,12:5
70,13:1
70,14:1
70,15:1
70,16:5
70,17:1
70,18:5
70,19:1
70,20:1
70,21:1
70,22:1
70,23:2
70,24:1
70,25:2
70,26:2
70,27:2
70,28:2
70,29:2
70,30:5
70,31:2
70,32:2
70,33:2
70,34:2
70,35:2
70,36:2
70,37:2
70,38:2
70,39:2
70,40:2
70,41:5
70,42:2
70,43:2
70,44:2
70,45:2
70,46:2
70,47:2
70,48:2
70,49:2
70,51:2
70,52:2
70,53:2
70,54:2
70,57:1
70,58:1
70,59:1
70,61:2
70,62:2
70,63:2
70,64:2

<setup times backward>
1,17:2
1,19:2
1,20:2
1,21:2
1,22:2
1,57:2
1,58:2
1,59:2
2,17:2
2,19:2
2,20:2
2,21:2
2,22:2
2,57:2
2,58:2
2,59:2
2,69:1
2,70:1
3,17:2
3,19:2
3,20:2
3,21:2
3,22:2
3,57:2
3,58:2
3,59:2
3,69:1
3,70:1
4,17:2
4,19:2
4,20:2
4,21:2
4,22:2
4,57:2
4,58:2
4,59:2
4,68:1
4,69:1
4,70:1
5,17:2
5,19:2
5,20:2
5,21:2
5,22:2
5,57:2
5,58:2
5,59:2
5,68:1
5,69:1
5,70:1
6,17:2
6,19:2
6,20:2
6,21:2
6,22:2
6,57:2
6,58:2
6,59:2
6,68:1
6,69:1
6,70:1
7,1:4
7,2:4
7,3:4
7,4:4
7,5:4
7,6:4
7,9:4
7,10:4
7,15:4
7,17:6
7,19:6
7,20:6
7,21:6
7,22:6
7,24:4
7,57:6
7,58:6
7,59:6
7,68:5
7,69:5
7,70:5
8,1:4
8,2:4
8,3:4
8,4:4
8,5:4
8,6:4
8,9:4
8,10:4
8,15:4
8,17:6
8,19:6
8,20:6
8,21:6
8,22:6
8,24:4
8,57:6
8,58:6
8,59:6
8,68:5
8,69:5
8,70:5
9,17:2
9,19:2
9,20:2
9,21:2
9,22:2
9,57:2
9,58:2
9,59:2
9,68:1
9,69:1
9,70:1
10,17:2
10,19:2
10,20:2
10,21:2
10,22:2
10,57:2
10,58:2
10,59:2
10,68:1
10,69:1
10,70:1
11,1:4
11,2:4
11,3:4
11,4:4
11,5:4
11,6:4
11,9:4
11,10:4
11,15:4
11,17:6
11,19:6
11,20:6
11,21:6
11,22:6
11,24:4
11,57:6
11,58:6
11,59:6
11,68:5
11,69:5
11,70:5
12,1:4
12,2:4
12,3:4
12,4:4
12,5:4
12,6:4
12,9:4
12,10:4
12,15:4
12,17:6
12,19:6
12,20:6
12,21:6
12,22:6
12,24:4
12,57:6
12,58:6
12,59:6
12,68:5
12,69:5
12,70:5
15,13:2
15,14:2
15,68:1
15,69:1
15,70:1
16,1:4
16,2:4
16,3:4
16,4:4
16,5:4
16,6:4
16,9:4
16,10:4
16,13:6
16,14:6
16,15:4
16,24:4
16,68:5
16,69:5
16,70:5
18,1:4
18,2:4
18,3:4
18,4:4
18,5:4
18,6:4
18,9:4
18,10:4
18,13:6
18,14:6
18,15:4
18,17:6
18,24:4
18,68:5
18,69:5
18,70:5
23,1:1
23,2:1
23,3:1
23,4:1
23,5:1
23,6:1
23,9:1
23,10:1
23,13:3
23,14:3
23,15:1
23,17:3
23,19:3
23,20:3
23,21:3
23,22:3
23,24:1
23,57:3
23,58:3
23,59:3
23,68:2
23,69:2
23,70:2
24,13:2
24,14:2
24,17:2
24,19:2
24,20:2
24,21:2
24,22:2
24,57:2
24,58:2
24,59:2
24,68:1
24,69:1
24,70:1
25,1:1
25,2:1
25,3:1
25,4:1
25,5:1
25,6:1
25,9:1
25,10:1
25,13:3
25,14:3
25,15:1
25,17:3
25,19:3
25,20:3
25,21:3
25,22:3
25,24:1
25,57:3
25,58:3
25,59:3
25,68:2
25,69:2
25,70:2
26,1:1
26,2:1
26,3:1
26,4:1
26,5:1
26,6:1
26,9:1
26,10:1
26,13:3
26,14:3
26,15:1
26,17:3
26,19:3
26,20:3
26,21:3
26,22:3
26,24:1
26,57:3
26,58:3
26,59:3
26,68:2
26,69:2
26,70:2
27,1:1
27,2:1
27,3:1
27,4:1
27,5:1
27,6:1
27,9:1
27,10:1
27,13:3
27,14:3
27,15:1
27,17:3
27,19:3
27,20:3
27,21:3
27,22:3
27,24:1
27,57:3
27,58:3
27,59:3
27,68:2
27,69:2
27,70:2
28,1:1
28,2:1
28,3:1
28,4:1
28,5:1
28,6:1
28,9:1
28,10:1
28,13:3
28,14:3
28,15:1
28,17:3
28,19:3
28,20:3
28,21:3
28,22:3
28,24:1
28,57:3
28,58:3
28,59:3
28,68:2
28,69:2
28,70:2
29,1:1
29,2:1
29,3:1
29,4:1
29,5:1
29,6:1
29,9:1
29,10:1
29,13:3
29,14:3
29,15:1
29,17:3
29,19:3
29,20:3
29,21:3
29,22:3
29,24:1
29,57:3
29,58:3
29,59:3
29,68:2
29,69:2
29,70:2
30,1:4
30,2:4
30,3:4
30,4:4
30,5:4
30,6:4
30,9:4
30,10:4
30,13:6
30,14:6
30,15:4
30,17:6
30,19:6
30,20:6
30,21:6
30,22:6
30,23:3
30,24:4
30,25:3
30,26:3
30,27:3
30,28:3
30,29:3
30,33:3
30,34:3
30,57:6
30,58:6
30,59:6
30,68:5
30,69:5
30,70:5
31,1:1
31,2:1
31,3:1
31,4:1
31,5:1
31,6:1
31,9:1
31,10:1
31,13:3
31,14:3
31,15:1
31,17:3
31,19:3
31,20:3
31,21:3
31,22:3
31,24:1
31,57:3
31,58:3
31,59:3
31,68:2
31,69:2
31,70:2
32,1:1
32,2:1
32,3:1
32,4:1
32,5:1
32,6:1
32,9:1
32,10:1
32,13:3
32,14:3
32,15:1
32,17:3
32,19:3
32,20:3
32,21:3
32,22:3
32,24:1
32,57:3
32,58:3
32,59:3
32,68:2
32,69:2
32,70:2
33,1:1
33,2:1
33,3:1
33,4:1
33,5:1
33,6:1
33,9:1
33,10:1
33,13:3
33,14:3
33,15:1
33,17:3
33,19:3
33,20:3
33,21:3
33,22:3
33,24:1
33,57:3
33,58:3
33,59:3
33,68:2
33,69:2
33,70:2
34,1:1
34,2:1
34,3:1
34,4:1
34,5:1
34,6:1
34,9:1
34,10:1
34,13:3
34,14:3
34,15:1
34,17:3
34,19:3
34,20:3
34,21:3
34,22:3
34,24:1
34,57:3
34,58:3
34,59:3
34,68:2
34,69:2
34,70:2
35,1:1
35,2:1
35,3:1
35,4:1
35,5:1
35,6:1
35,9:1
35,10:1
35,13:3
35,14:3
35,15:1
35,17:3
35,19:3
35,20:3
35,21:3
35,22:3
35,24:1
35,57:3
35,58:3
35,59:3
35,68:2
35,69:2
35,70:2
41,1:4
41,2:4
41,3:4
41,4:4
41,5:4
41,6:4
41,9:4
41,10:4
41,13:6
41,14:6
41,15:4
41,17:6
41,19:6
41,20:6
41,21:6
41,22:6
41,23:3
41,24:4
41,25:3
41,26:3
41,27:3
41,28:3
41,29:3
41,31:3
41,32:3
41,33:3
41,34:3
41,35:3
41,36:7
41,37:7
41,38:7
41,39:7
41,40:7
41,44:3
41,45:3
41,46:3
41,47:7
41,48:7
41,49:7
41,51:3
41,52:3
41,53:7
41,54:7
41,55:5
41,56:5
41,57:6
41,58:6
41,59:6
41,60:5
41,61:7
41,62:3
41,63:3
41,64:7
41,65:5
41,66:5
41,67:5
41,68:5
41,69:5
41,70:5
44,1:1
44,2:1
44,3:1
44,4:1
44,5:1
44,6:1
44,9:1
44,10:1
44,13:3
44,14:3
44,15:1
44,17:3
44,19:3
44,20:3
44,21:3
44,22:3
44,24:1
44,36:4
44,37:4
44,38:4
44,39:4
44,40:4
44,42:4
44,43:4
44,48:4
44,49:4
44,53:4
44,54:4
44,55:2
44,56:2
44,57:3
44,58:3
44,59:3
44,60:2
44,61:4
44,64:4
44,65:2
44,66:2
44,67:2
44,68:2
44,69:2
44,70:2
45,1:1
45,2:1
45,3:1
45,4:1
45,5:1
45,6:1
45,9:1
45,10:1
45,13:3
45,14:3
45,15:1
45,17:3
45,19:3
45,20:3
45,21:3
45,22:3
45,24:1
45,36:4
45,37:4
45,38:4
45,39:4
45,40:4
45,42:4
45,43:4
45,48:4
45,49:4
45,53:4
45,54:4
45,55:2
45,56:2
45,57:3
45,58:3
45,59:3
45,60:2
45,61:4
45,64:4
45,65:2
45,66:2
45,67:2
45,68:2
45,69:2
45,70:2
46,1:1
46,2:1
46,3:1
46,4:1
46,5:1
46,6:1
46,9:1
46,10:1
46,13:3
46,14:3
46,15:1
46,17:3
46,19:3
46,20:3
46,21:3
46,22:3
46,24:1
46,36:4
46,37:4
46,38:4
46,39:4
46,40:4
46,42:4
46,43:4
46,48:4
46,49:4
46,53:4
46,54:4
46,55:2
46,56:2
46,57:3
46,58:3
46,59:3
46,60:2
46,61:4
46,64:4
46,65:2
46,66:2
46,67:2
46,68:2
46,69:2
46,70:2
50,13:1
50,14:1
50,17:1
50,19:1
50,20:1
50,21:1
50,22:1
50,36:2
50,37:2
50,38:2
50,39:2
50,40:2
50,42:2
50,43:2
50,47:2
50,48:2
50,49:2
50,53:2
50,54:2
50,57:1
50,58:1
50,59:1
50,61:2
50,64:2
51,1:1
51,2:1
51,3:1
51,4:1
51,5:1
51,6:1
51,9:1
51,10:1
51,13:3
51,14:3
51,15:1
51,17:3
51,19:3
51,20:3
51,21:3
51,22:3
51,24:1
51,36:4
51,37:4
51,38:4
51,39:4
51,40:4
51,42:4
51,43:4
51,47:4
51,48:4
51,49:4
51,50:2
51,53:4
51,56:2
51,57:3
51,58:3
51,59:3
51,60:2
51,61:4
51,64:4
51,65:2
51,66:2
51,67:2
51,68:2
51,69:2
51,70:2
52,1:1
52,2:1
52,3:1
52,4:1
52,5:1
52,6:1
52,9:1
52,10:1
52,13:3
52,14:3
52,15:1
52,17:3
52,19:3
52,20:3
52,21:3
52,22:3
52,24:1
52,36:4
52,37:4
52,38:4
52,39:4
52,40:4
52,42:4
52,43:4
52,47:4
52,48:4
52,49:4
52,50:2
52,53:4
52,56:2
52,57:3
52,58:3
52,59:3
52,60:2
52,61:4
52,64:4
52,65:2
52,66:2
52,67:2
52,68:2
52,69:2
52,70:2
55,13:1
55,14:1
55,17:1
55,19:1
55,20:1
55,21:1
55,22:1
55,36:2
55,37:2
55,38:2
55,39:2
55,40:2
55,42:2
55,43:2
55,47:2
55,48:2
55,49:2
55,53:2
55,54:2
55,57:1
55,58:1
55,59:1
55,61:2
55,64:2
56,13:1
56,14:1
56,17:1
56,19:1
56,20:1
56,21:1
56,22:1
56,36:2
56,37:2
56,38:2
56,39:2
56,40:2
56,42:2
56,43:2
56,47:2
56,48:2
56,49:2
56,53:2
56,54:2
56,57:1
56,58:1
56,59:1
56,61:2
56,64:2
57,36:1
57,37:1
57,38:1
57,39:1
57,40:1
57,42:1
57,43:1
57,47:1
57,48:1
57,49:1
57,53:1
57,54:1
57,61:1
57,64:1
58,36:1
58,37:1
58,38:1
58,39:1
58,40:1
58,42:1
58,43:1
58,47:1
58,48:1
58,49:1
58,53:1
58,54:1
58,61:1
58,64:1
59,36:1
59,37:1
59,38:1
59,39:1
59,40:1
59,42:1
59,43:1
59,47:1
59,48:1
59,49:1
59,53:1
59,54:1
59,61:1
59,64:1
60,13:1
60,14:1
60,17:1
60,19:1
60,20:1
60,21:1
60,22:1
60,36:2
60,37:2
60,38:2
60,39:2
60,40:2
60,42:2
60,43:2
60,47:2
60,48:2
60,49:2
60,53:2
60,54:2
60,57:1
60,58:1
60,59:1
60,61:2
60,64:2
62,1:1
62,2:1
62,3:1
62,4:1
62,5:1
62,6:1
62,9:1
62,10:1
62,13:3
62,14:3
62,15:1
62,17:3
62,19:3
62,20:3
62,21:3
62,22:3
62,24:1
62,36:4
62,37:4
62,38:4
62,39:4
62,40:4
62,42:4
62,43:4
62,47:4
62,48:4
62,49:4
62,50:2
62,53:4
62,54:4
62,55:2
62,56:2
62,57:3
62,58:3
62,59:3
62,60:2
62,61:4
62,68:2
62,69:2
62,70:2
63,1:1
63,2:1
63,3:1
63,4:1
63,5:1
63,6:1
63,9:1
63,10:1
63,13:3
63,14:3
63,15:1
63,17:3
63,19:3
63,20:3
63,21:3
63,22:3
63,24:1
63,36:4
63,37:4
63,38:4
63,39:4
63,40:4
63,42:4
63,43:4
63,47:4
63,48:4
63,49:4
63,50:2
63,53:4
63,54:4
63,55:2
63,56:2
63,57:3
63,58:3
63,59:3
63,60:2
63,61:4
63,68:2
63,69:2
63,70:2
65,13:1
65,14:1
65,17:1
65,19:1
65,20:1
65,21:1
65,22:1
65,36:2
65,37:2
65,38:2
65,39:2
65,40:2
65,42:2
65,43:2
65,47:2
65,48:2
65,49:2
65,53:2
65,54:2
65,57:1
65,58:1
65,59:1
65,61:2
65,64:2
66,13:1
66,14:1
66,17:1
66,19:1
66,20:1
66,21:1
66,22:1
66,36:2
66,37:2
66,38:2
66,39:2
66,40:2
66,42:2
66,43:2
66,47:2
66,48:2
66,49:2
66,53:2
66,54:2
66,57:1
66,58:1
66,59:1
66,61:2
66,64:2
67,13:1
67,14:1
67,17:1
67,19:1
67,20:1
67,21:1
67,22:1
67,36:2
67,37:2
67,38:2
67,39:2
67,40:2
67,42:2
67,43:2
67,47:2
67,48:2
67,49:2
67,53:2
67,54:2
67,57:1
67,58:1
67,59:1
67,61:2
67,64:2
68,13:1
68,14:1
68,17:1
68,19:1
68,20:1
68,21:1
68,22:1
68,36:2
68,37:2
68,38:2
68,39:2
68,40:2
68,42:2
68,43:2
68,47:2
68,48:2
68,49:2
68,53:2
68,54:2
68,57:1
68,58:1
68,59:1
68,61:2
68,64:2
69,13:1
69,14:1
69,17:1
69,19:1
69,20:1
69,21:1
69,22:1
69,36:2
69,37:2
69,38:2
69,39:2
69,40:2
69,42:2
69,43:2
69,47:2
69,48:2
69,49:2
69,53:2
69,54:2
69,57:1
69,58:1
69,59:1
69,61:2
69,64:2
70,13:1
70,14:1
70,17:1
70,19:1
70,20:1
70,21:1
70,22:1
70,36:2
70,37:2
70,38:2
70,39:2
70,40:2
70,42:2
70,43:2
70,47:2
70,48:2
70,49:2
70,53:2
70,54:2
70,57:1
70,58:1
70,59:1
70,61:2
70,64:2

<end>

<optimal SALBP-1 value>
7


<rand seed>
467321153

